51
100
70	5
69	1
68	2
67	1
66	3
65	2
64	1
63	1
62	3
61	2
60	1
59	2
57	2
56	2
55	2
52	1
51	3
50	1
48	1
47	2
46	3
45	2
43	3
42	2
41	1
40	3
36	2
35	1
34	1
33	1
32	2
31	1
30	2
29	7
28	1
27	1
26	3
25	2
23	2
22	3
21	1
20	4
19	1
18	2
17	3
15	2
14	2
13	1
12	1
11	1
10	1
